p edge 69 718
e 1 7
e 1 8
e 1 11
e 1 12
e 1 13
e 1 14
e 1 20
e 1 23
e 1 24
e 1 25
e 1 28
e 1 30
e 1 45
e 1 47
e 1 52
e 1 56
e 1 58
e 1 64
e 1 67
e 1 69
e 2 7
e 2 10
e 2 11
e 2 12
e 2 15
e 2 17
e 2 23
e 2 24
e 2 27
e 2 30
e 2 32
e 2 44
e 2 45
e 2 53
e 2 55
e 2 56
e 2 59
e 3 8
e 3 11
e 3 14
e 3 15
e 3 17
e 3 19
e 3 22
e 3 26
e 3 37
e 3 44
e 3 45
e 3 48
e 3 55
e 3 56
e 3 57
e 3 62
e 3 63
e 3 67
e 3 69
e 4 12
e 4 15
e 4 19
e 4 21
e 4 26
e 4 40
e 4 41
e 4 44
e 4 45
e 4 47
e 4 48
e 4 51
e 4 55
e 4 56
e 4 57
e 4 59
e 4 61
e 4 66
e 4 67
e 5 14
e 5 16
e 5 19
e 5 20
e 5 21
e 5 22
e 5 24
e 5 28
e 5 31
e 5 32
e 5 34
e 5 37
e 5 43
e 5 44
e 5 50
e 5 54
e 5 59
e 5 63
e 6 7
e 6 8
e 6 12
e 6 15
e 6 26
e 6 27
e 6 28
e 6 34
e 6 38
e 6 48
e 6 52
e 6 53
e 6 61
e 6 64
e 6 66
e 6 67
e 6 69
e 7 8
e 7 11
e 7 13
e 7 18
e 7 21
e 7 22
e 7 26
e 7 36
e 7 40
e 7 41
e 7 45
e 7 48
e 7 49
e 7 55
e 7 58
e 7 61
e 7 62
e 7 63
e 7 67
e 8 16
e 8 18
e 8 19
e 8 22
e 8 24
e 8 25
e 8 27
e 8 28
e 8 29
e 8 39
e 8 42
e 8 44
e 8 51
e 8 52
e 8 54
e 8 56
e 8 58
e 8 63
e 8 65
e 8 66
e 8 67
e 8 69
e 9 13
e 9 16
e 9 17
e 9 18
e 9 33
e 9 34
e 9 38
e 9 40
e 9 41
e 9 45
e 9 47
e 9 49
e 9 50
e 9 54
e 9 57
e 9 63
e 9 66
e 9 67
e 10 11
e 10 12
e 10 13
e 10 18
e 10 22
e 10 25
e 10 29
e 10 35
e 10 36
e 10 37
e 10 45
e 10 48
e 10 50
e 10 53
e 10 60
e 10 62
e 10 66
e 11 16
e 11 21
e 11 23
e 11 25
e 11 27
e 11 28
e 11 29
e 11 30
e 11 32
e 11 35
e 11 37
e 11 39
e 11 40
e 11 43
e 11 48
e 11 50
e 11 52
e 11 57
e 11 62
e 11 64
e 11 66
e 12 13
e 12 16
e 12 17
e 12 19
e 12 25
e 12 36
e 12 42
e 12 46
e 12 47
e 12 52
e 12 53
e 12 57
e 12 67
e 13 19
e 13 20
e 13 21
e 13 22
e 13 23
e 13 24
e 13 25
e 13 29
e 13 30
e 13 33
e 13 37
e 13 38
e 13 39
e 13 50
e 13 53
e 13 54
e 13 55
e 13 56
e 13 59
e 13 63
e 14 16
e 14 18
e 14 19
e 14 20
e 14 22
e 14 27
e 14 29
e 14 32
e 14 35
e 14 36
e 14 38
e 14 39
e 14 40
e 14 41
e 14 45
e 14 46
e 14 47
e 14 50
e 14 51
e 14 52
e 14 57
e 14 60
e 14 64
e 14 68
e 14 69
e 15 17
e 15 18
e 15 23
e 15 25
e 15 30
e 15 34
e 15 35
e 15 37
e 15 38
e 15 41
e 15 43
e 15 45
e 15 48
e 15 51
e 15 52
e 15 54
e 15 56
e 15 57
e 15 63
e 15 65
e 16 23
e 16 31
e 16 32
e 16 33
e 16 34
e 16 36
e 16 37
e 16 40
e 16 43
e 16 44
e 16 46
e 16 49
e 16 50
e 16 53
e 16 59
e 16 64
e 16 68
e 16 69
e 17 21
e 17 22
e 17 24
e 17 26
e 17 29
e 17 34
e 17 37
e 17 38
e 17 42
e 17 45
e 17 52
e 17 56
e 17 67
e 17 68
e 18 22
e 18 24
e 18 25
e 18 28
e 18 29
e 18 30
e 18 33
e 18 39
e 18 41
e 18 43
e 18 45
e 18 46
e 18 50
e 18 51
e 18 61
e 18 62
e 18 63
e 18 67
e 19 21
e 19 22
e 19 28
e 19 34
e 19 36
e 19 39
e 19 44
e 19 45
e 19 47
e 19 51
e 19 55
e 19 57
e 19 59
e 19 66
e 20 25
e 20 26
e 20 31
e 20 33
e 20 42
e 20 46
e 20 49
e 20 52
e 20 59
e 20 60
e 20 61
e 20 62
e 20 63
e 20 64
e 20 65
e 20 67
e 20 68
e 20 69
e 21 27
e 21 30
e 21 32
e 21 33
e 21 39
e 21 45
e 21 50
e 21 54
e 21 56
e 21 60
e 21 65
e 21 69
e 22 24
e 22 27
e 22 32
e 22 34
e 22 36
e 22 37
e 22 44
e 22 48
e 22 49
e 22 51
e 22 58
e 22 61
e 22 62
e 22 63
e 22 67
e 22 68
e 23 28
e 23 36
e 23 37
e 23 38
e 23 43
e 23 46
e 23 51
e 23 53
e 23 58
e 23 60
e 23 63
e 23 64
e 23 66
e 23 67
e 23 68
e 24 25
e 24 27
e 24 28
e 24 34
e 24 36
e 24 39
e 24 40
e 24 44
e 24 45
e 24 47
e 24 52
e 24 60
e 24 62
e 24 64
e 24 65
e 25 26
e 25 29
e 25 30
e 25 33
e 25 35
e 25 51
e 25 52
e 25 54
e 25 56
e 25 61
e 25 64
e 26 31
e 26 32
e 26 34
e 26 37
e 26 40
e 26 42
e 26 47
e 26 48
e 26 49
e 26 51
e 26 54
e 26 55
e 26 57
e 26 63
e 26 68
e 27 30
e 27 31
e 27 33
e 27 35
e 27 41
e 27 42
e 27 48
e 27 49
e 27 51
e 27 63
e 28 32
e 28 33
e 28 34
e 28 36
e 28 38
e 28 40
e 28 41
e 28 51
e 28 52
e 28 55
e 28 56
e 28 57
e 28 58
e 28 64
e 29 30
e 29 32
e 29 37
e 29 38
e 29 40
e 29 41
e 29 44
e 29 47
e 29 48
e 29 50
e 29 52
e 29 61
e 29 63
e 29 64
e 29 65
e 29 67
e 30 36
e 30 39
e 30 40
e 30 43
e 30 49
e 30 51
e 30 54
e 30 56
e 30 59
e 30 61
e 30 62
e 30 66
e 31 36
e 31 37
e 31 41
e 31 43
e 31 46
e 31 47
e 31 52
e 31 55
e 31 56
e 31 60
e 31 65
e 32 33
e 32 42
e 32 44
e 32 55
e 32 59
e 32 63
e 32 66
e 32 67
e 32 68
e 33 36
e 33 52
e 33 55
e 33 56
e 33 59
e 33 64
e 33 67
e 34 40
e 34 42
e 34 50
e 34 53
e 34 58
e 34 65
e 34 66
e 34 67
e 35 37
e 35 46
e 35 56
e 35 60
e 35 64
e 35 65
e 35 68
e 36 37
e 36 43
e 36 46
e 36 49
e 36 51
e 36 52
e 36 54
e 36 57
e 36 58
e 36 59
e 36 63
e 37 40
e 37 43
e 37 45
e 37 46
e 37 47
e 37 48
e 37 54
e 37 55
e 37 58
e 37 66
e 38 39
e 38 43
e 38 45
e 38 48
e 38 55
e 38 58
e 38 61
e 38 64
e 38 65
e 38 68
e 39 40
e 39 41
e 39 42
e 39 45
e 39 47
e 39 48
e 39 49
e 39 55
e 39 56
e 39 59
e 39 61
e 39 62
e 39 67
e 40 41
e 40 42
e 40 45
e 40 55
e 40 60
e 40 63
e 40 69
e 41 44
e 41 46
e 41 47
e 41 52
e 41 55
e 41 56
e 41 58
e 41 63
e 41 67
e 41 68
e 42 51
e 42 54
e 42 60
e 42 61
e 42 66
e 43 45
e 43 49
e 43 52
e 43 57
e 43 58
e 43 59
e 43 64
e 43 68
e 44 45
e 44 46
e 44 47
e 44 51
e 44 53
e 44 59
e 44 61
e 44 62
e 44 64
e 45 46
e 45 49
e 45 50
e 45 56
e 45 58
e 45 63
e 46 48
e 46 50
e 46 53
e 46 63
e 46 68
e 47 56
e 47 58
e 47 64
e 47 67
e 47 68
e 48 52
e 48 61
e 48 63
e 48 65
e 48 67
e 48 69
e 49 50
e 49 55
e 49 60
e 49 61
e 49 63
e 49 67
e 49 68
e 49 69
e 50 51
e 50 53
e 50 54
e 50 57
e 50 61
e 50 65
e 51 52
e 51 53
e 51 54
e 51 55
e 51 58
e 51 59
e 51 64
e 51 68
e 51 69
e 52 54
e 52 57
e 52 62
e 52 64
e 52 65
e 53 56
e 53 60
e 53 63
e 54 55
e 54 57
e 54 58
e 54 60
e 54 61
e 54 62
e 54 64
e 54 65
e 55 56
e 55 58
e 55 64
e 55 65
e 55 67
e 56 58
e 56 62
e 56 63
e 56 67
e 57 60
e 57 61
e 57 68
e 58 63
e 59 62
e 59 63
e 59 66
e 60 62
e 61 62
e 61 64
e 61 66
e 61 68
e 62 66
e 62 69
e 63 64
e 63 65
e 63 69
e 64 65
e 66 67
e 68 69
